5941.38 373822
245979 94828.8
380433 16353.8
280167 66272.8
340315 50060.1
239848 107220
174405 176732
271059 76301.7
6005.66 356231
109916 261472
270302 78188.1
237408 124445
267622 81656.1
86260.8 263873
190688 166861
226246 130987
317655 51439
84091.7 285382
197270 155539
40326.7 318740
263213 94355.2
376332 20602.8
142744 222247
219228 134525
342858 28713.5
150721 213734
158230 211505
168477 205040
118311 255972
228485 130667
127197 248129
239320 116863
57181.4 310270
26119.1 330313
80162.6 286221
349021 26996.2
232397 128973
212782 152240
264973 91851.8
214132 144915
72223 293218
234848 126570
65030.5 302078
147337 220854
76127.8 286621
139007 232460
231466 129242
122576 253148
350489 21640.6
213661 148606
25247.9 333747
57369.1 304966
54545.4 316447
130758 239563
237456 123864
137968 237879
78204.4 286319
